
Log started (V11.0.0) Wed May 14 22:44:51 2008

Tried aggregator 1 time.
Reduced MIP has 140 rows, 4001 columns, and 8040 nonzeros.
Presolve time =    0.03 sec.
Clique table members: 100.
MIP emphasis: balance optimality and feasibility.
MIP search method: dynamic search.
Parallel mode: none, using 1 thread.
Root relaxation solution time =    0.19 sec.

        Nodes                                         Cuts/
   Node  Left     Objective  IInf  Best Integer     Best Node    ItCnt     Gap

*     0+    0                        10905.0000      250.3243      455   97.70%
*     0+    0                          303.0000      250.3243      455   17.38%
      0     0      251.6143    76      303.0000      Fract: 6      470   16.96%
*     0+    0                          301.0000      251.6143      470   16.41%
      0     0      275.1302    74      301.0000   MIRcuts: 39     1122    8.59%
      0     0      275.1302   102      301.0000   MIRcuts: 30     1258    8.59%
      0     0      275.1302   103      301.0000      Cuts: 34     1384    8.59%
*     0+    0                          300.0000      275.1302     1384    8.29%
      0     2      275.1302   103      300.0000      275.1302     1384    8.29%
    100    80      276.0000    65      300.0000      275.7520    10448    8.08%
    200   143      276.0000    64      300.0000      275.7520    24832    8.08%
    300   212      276.0000    61      300.0000      275.7520    29175    8.08%
    400   279      276.0000    60      300.0000      275.7520    32682    8.08%
    500   338      276.0000    64      300.0000      275.7520    39545    8.08%

Cover cuts applied:  34
Flow cuts applied:  2
Mixed integer rounding cuts applied:  40
Zero-half cuts applied:  8
Gomory fractional cuts applied:  4

Solution pool: 4 solutions saved.

MIP - Integer optimal solution:  Objective = 3.0000000000e+002
Solution time =   21.59 sec.  Iterations = 41055  Nodes = 511 (346)


Incumbent solution
Variable Name           Solution Value
Cmax                        300.000000
X_1_25                        1.000000
X_2_21                        1.000000
X_3_30                        1.000000
X_4_37                        1.000000
X_5_12                        1.000000
X_6_26                        1.000000
X_7_39                        1.000000
X_8_6                         1.000000
X_9_14                        1.000000
X_10_4                        1.000000
X_11_39                       1.000000
X_12_34                       1.000000
X_13_24                       1.000000
X_14_14                       1.000000
X_15_40                       1.000000
X_16_8                        1.000000
X_17_1                        1.000000
X_18_22                       1.000000
X_19_30                       1.000000
X_20_22                       1.000000
X_21_3                        1.000000
X_22_32                       1.000000
X_23_3                        1.000000
X_24_28                       1.000000
X_25_4                        1.000000
X_26_31                       1.000000
X_27_18                       1.000000
X_28_37                       1.000000
X_29_17                       1.000000
X_30_32                       1.000000
X_31_15                       1.000000
X_32_24                       1.000000
X_33_35                       1.000000
X_34_25                       1.000000
X_35_16                       1.000000
X_36_20                       1.000000
X_37_14                       1.000000
X_38_6                        1.000000
X_39_9                        1.000000
X_40_27                       1.000000
X_41_27                       1.000000
X_42_36                       1.000000
X_43_27                       1.000000
X_44_7                        1.000000
X_45_10                       1.000000
X_46_23                       1.000000
X_47_16                       1.000000
X_48_31                       1.000000
X_49_9                        1.000000
X_50_23                       1.000000
X_51_36                       1.000000
X_52_5                        1.000000
X_53_10                       1.000000
X_54_18                       1.000000
X_55_24                       1.000000
X_56_21                       1.000000
X_57_13                       1.000000
X_58_15                       1.000000
X_59_37                       1.000000
X_60_33                       1.000000
X_61_7                        1.000000
X_62_13                       1.000000
X_63_26                       1.000000
X_64_17                       1.000000
X_65_5                        1.000000
X_66_19                       1.000000
X_67_8                        1.000000
X_68_38                       1.000000
X_69_40                       1.000000
X_70_26                       1.000000
X_71_35                       1.000000
X_72_3                        1.000000
X_73_20                       1.000000
X_74_36                       1.000000
X_75_16                       1.000000
X_76_28                       1.000000
X_77_39                       1.000000
X_78_9                        1.000000
X_79_4                        1.000000
X_80_40                       1.000000
X_81_38                       1.000000
X_82_18                       1.000000
X_83_2                        1.000000
X_84_31                       1.000000
X_85_22                       1.000000
X_86_29                       1.000000
X_87_10                       1.000000
X_88_34                       1.000000
X_89_35                       1.000000
X_90_38                       1.000000
X_91_19                       1.000000
X_92_12                       1.000000
X_93_33                       1.000000
X_94_11                       1.000000
X_95_1                        1.000000
X_96_17                       1.000000
X_97_29                       1.000000
X_98_11                       1.000000
X_99_2                        1.000000
X_100_32                      1.000000
All other variables in the range 1-4001 are 0.
